-161.0 10.0 4.0 5.0 7.0 3.0 6.0 1.0 7.0 3.0 2.0 6.0 3.0 0.0 9.0 5.0 8.0 8.0 10.0 9.0 7.0 10.0 4.0 10.0 2.0 6.0 3.0 10.0 3.0 
10.0 -149.0 9.0 1.0 2.0 8.0 4.0 2.0 6.0 1.0 1.0 1.0 7.0 9.0 9.0 5.0 4.0 7.0 3.0 9.0 4.0 5.0 8.0 9.0 5.0 4.0 8.0 8.0 0.0 
4.0 9.0 -156.0 9.0 3.0 4.0 8.0 1.0 4.0 5.0 3.0 4.0 1.0 6.0 9.0 3.0 8.0 6.0 5.0 8.0 10.0 0.0 6.0 10.0 1.0 6.0 8.0 10.0 5.0 
5.0 1.0 9.0 -142.0 1.0 8.0 9.0 10.0 2.0 2.0 5.0 4.0 4.0 4.0 2.0 8.0 3.0 2.0 7.0 9.0 4.0 3.0 9.0 3.0 2.0 7.0 8.0 2.0 9.0 
7.0 2.0 3.0 1.0 -133.0 4.0 2.0 10.0 0.0 0.0 10.0 1.0 10.0 9.0 2.0 8.0 4.0 8.0 6.0 0.0 10.0 4.0 7.0 7.0 3.0 3.0 6.0 4.0 2.0 
3.0 8.0 4.0 8.0 4.0 -133.0 2.0 3.0 5.0 7.0 10.0 8.0 5.0 5.0 3.0 1.0 10.0 1.0 10.0 6.0 2.0 8.0 1.0 3.0 0.0 4.0 0.0 10.0 2.0 
6.0 4.0 8.0 9.0 2.0 2.0 -162.0 4.0 8.0 8.0 7.0 9.0 9.0 10.0 10.0 8.0 8.0 2.0 2.0 2.0 1.0 3.0 2.0 3.0 8.0 10.0 7.0 5.0 5.0 
1.0 2.0 1.0 10.0 10.0 3.0 4.0 -127.0 0.0 7.0 4.0 9.0 2.0 1.0 10.0 2.0 1.0 7.0 1.0 8.0 8.0 0.0 0.0 4.0 5.0 8.0 4.0 6.0 9.0 
7.0 6.0 4.0 2.0 0.0 5.0 8.0 0.0 -144.0 0.0 7.0 3.0 9.0 10.0 3.0 3.0 10.0 3.0 8.0 5.0 7.0 1.0 8.0 2.0 7.0 8.0 5.0 6.0 7.0 
3.0 1.0 5.0 2.0 0.0 7.0 8.0 7.0 0.0 -120.0 8.0 0.0 4.0 6.0 2.0 3.0 4.0 1.0 1.0 5.0 8.0 4.0 3.0 3.0 9.0 9.0 6.0 1.0 10.0 
2.0 1.0 3.0 5.0 10.0 10.0 7.0 4.0 7.0 8.0 -142.0 3.0 0.0 10.0 9.0 5.0 10.0 10.0 3.0 4.0 1.0 5.0 0.0 4.0 3.0 3.0 0.0 7.0 8.0 
6.0 1.0 4.0 4.0 1.0 8.0 9.0 9.0 3.0 0.0 3.0 -132.0 1.0 7.0 1.0 8.0 9.0 3.0 7.0 3.0 6.0 9.0 10.0 4.0 5.0 3.0 0.0 7.0 1.0 
3.0 7.0 1.0 4.0 10.0 5.0 9.0 2.0 9.0 4.0 0.0 1.0 -143.0 4.0 0.0 10.0 10.0 4.0 7.0 0.0 4.0 5.0 7.0 6.0 9.0 3.0 9.0 6.0 4.0 
0.0 9.0 6.0 4.0 9.0 5.0 10.0 1.0 10.0 6.0 10.0 7.0 4.0 -136.0 6.0 2.0 2.0 2.0 4.0 8.0 4.0 0.0 0.0 1.0 7.0 1.0 8.0 1.0 9.0 
9.0 9.0 9.0 2.0 2.0 3.0 10.0 10.0 3.0 2.0 9.0 1.0 0.0 6.0 -153.0 3.0 8.0 4.0 8.0 1.0 1.0 2.0 9.0 10.0 9.0 3.0 8.0 6.0 6.0 
5.0 5.0 3.0 8.0 8.0 1.0 8.0 2.0 3.0 3.0 5.0 8.0 10.0 2.0 3.0 -154.0 9.0 3.0 6.0 3.0 10.0 8.0 3.0 5.0 10.0 4.0 4.0 8.0 7.0 
8.0 4.0 8.0 3.0 4.0 10.0 8.0 1.0 10.0 4.0 10.0 9.0 10.0 2.0 8.0 9.0 -183.0 7.0 10.0 8.0 10.0 0.0 6.0 4.0 8.0 1.0 10.0 9.0 2.0 
8.0 7.0 6.0 2.0 8.0 1.0 2.0 7.0 3.0 1.0 10.0 3.0 4.0 2.0 4.0 3.0 7.0 -133.0 1.0 2.0 10.0 2.0 8.0 5.0 6.0 6.0 9.0 5.0 1.0 
10.0 3.0 5.0 7.0 6.0 10.0 2.0 1.0 8.0 1.0 3.0 7.0 7.0 4.0 8.0 6.0 10.0 1.0 -168.0 7.0 8.0 5.0 10.0 7.0 8.0 1.0 9.0 10.0 4.0 
9.0 9.0 8.0 9.0 0.0 6.0 2.0 8.0 5.0 5.0 4.0 3.0 0.0 8.0 1.0 3.0 8.0 2.0 7.0 -158.0 7.0 9.0 3.0 8.0 9.0 7.0 0.0 8.0 10.0 
7.0 4.0 10.0 4.0 10.0 2.0 1.0 8.0 7.0 8.0 1.0 6.0 4.0 4.0 1.0 10.0 10.0 10.0 8.0 7.0 -159.0 7.0 9.0 1.0 5.0 2.0 5.0 3.0 5.0 
10.0 5.0 0.0 3.0 4.0 8.0 3.0 0.0 1.0 4.0 5.0 9.0 5.0 0.0 2.0 8.0 0.0 2.0 5.0 9.0 7.0 -127.0 10.0 5.0 7.0 5.0 1.0 0.0 9.0 
4.0 8.0 6.0 9.0 7.0 1.0 2.0 0.0 8.0 3.0 0.0 10.0 7.0 0.0 9.0 3.0 6.0 8.0 10.0 3.0 9.0 10.0 -163.0 4.0 8.0 3.0 7.0 9.0 9.0 
10.0 9.0 10.0 3.0 7.0 3.0 3.0 4.0 2.0 3.0 4.0 4.0 6.0 1.0 10.0 5.0 4.0 5.0 7.0 8.0 1.0 5.0 4.0 -156.0 7.0 5.0 10.0 10.0 6.0 
2.0 5.0 1.0 2.0 3.0 0.0 8.0 5.0 7.0 9.0 3.0 5.0 9.0 7.0 9.0 10.0 8.0 6.0 8.0 9.0 5.0 7.0 8.0 7.0 -160.0 5.0 3.0 2.0 7.0 
6.0 4.0 6.0 7.0 3.0 4.0 10.0 8.0 8.0 9.0 3.0 3.0 3.0 1.0 3.0 4.0 1.0 6.0 1.0 7.0 2.0 5.0 3.0 5.0 5.0 -135.0 9.0 7.0 2.0 
3.0 8.0 8.0 8.0 6.0 0.0 7.0 4.0 5.0 6.0 0.0 0.0 9.0 8.0 8.0 4.0 10.0 9.0 9.0 0.0 5.0 1.0 7.0 10.0 3.0 9.0 -154.0 3.0 4.0 
10.0 8.0 10.0 2.0 4.0 10.0 5.0 6.0 6.0 1.0 7.0 7.0 6.0 1.0 6.0 8.0 9.0 5.0 10.0 8.0 3.0 0.0 9.0 10.0 2.0 7.0 3.0 -171.0 8.0 
3.0 0.0 5.0 9.0 2.0 2.0 5.0 9.0 7.0 10.0 8.0 1.0 4.0 9.0 6.0 7.0 2.0 1.0 4.0 10.0 5.0 9.0 9.0 6.0 7.0 2.0 4.0 8.0 -154.0 

